solution status: optimal solution found
objective value:                                    6
$_127_y                                            11 	(obj:0)
$_127_z                                            12 	(obj:0)
$_19_y                                             11 	(obj:0)
$_19_z                                             18 	(obj:0)
$_199_y                                            11 	(obj:0)
$_199_z                                            13 	(obj:0)
$_240_y                                            11 	(obj:0)
$_240_z                                            11 	(obj:0)
$_78_y                                             11 	(obj:0)
$_78_z                                              7 	(obj:0)
$_61_y                                             13 	(obj:0)
$_61_z                                             11 	(obj:0)
$_134_y                                            11 	(obj:0)
$_134_z                                             9 	(obj:0)
$_60_y                                             13 	(obj:0)
$_60_z                                              9 	(obj:0)
$_59_y                                             13 	(obj:0)
$_59_z                                              8 	(obj:0)
$_158_y                                             8 	(obj:0)
$_158_z                                            13 	(obj:0)
$_20_y                                             15 	(obj:0)
$_20_z                                             13 	(obj:0)
$_280_y                                            11 	(obj:0)
$_280_z                                             8 	(obj:0)
$_77_y                                              6 	(obj:0)
$_77_z                                             12 	(obj:0)
$_242_y                                            12 	(obj:0)
$_242_z                                            11 	(obj:0)
$_201_y                                             9 	(obj:0)
$_201_z                                            13 	(obj:0)
$_202_y                                            11 	(obj:0)
$_202_z                                            14 	(obj:0)
$_38_y                                              7 	(obj:0)
$_38_z                                             19 	(obj:0)
$_161_y                                             8 	(obj:0)
$_161_z                                            14 	(obj:0)
$_120_y                                             8 	(obj:0)
$_120_z                                            15 	(obj:0)
$_79_y                                              7 	(obj:0)
$_79_z                                             13 	(obj:0)
$_243_y                                            11 	(obj:0)
$_243_z                                            10 	(obj:0)
$_76_y                                             12 	(obj:0)
$_76_z                                              8 	(obj:0)
$_37_y                                              7 	(obj:0)
$_37_z                                             17 	(obj:0)
$_18_y                                              8 	(obj:0)
$_18_z                                             19 	(obj:0)
$_160_y                                             6 	(obj:0)
$_160_z                                            13 	(obj:0)
$_39_y                                              6 	(obj:0)
$_39_z                                             14 	(obj:0)
$_113_y                                             7 	(obj:0)
$_113_z                                            14 	(obj:0)
$_21_y                                             14 	(obj:0)
$_21_z                                              8 	(obj:0)
x61                                                 1 	(obj:1)
x68                                                 1 	(obj:1)
x93                                                 1 	(obj:1)
x108                                                2 	(obj:1)
x110                                                1 	(obj:1)
